100 8
646 482
221 834
634 140
730 613
739 764
520 693
163 487
660 122
329 573
640 424
220 802
637 734
610 854
206 671
261 676
220 220
236 583
397 141
291 441
382 582
548 788
624 727
702 608
143 143
536 789
318 777
662 561
251 871
51 201
398 150
543 948
798 487
801 279
579 854
486 362
748 508
157 945
706 718
610 479
383 578
574 522
713 293
632 653
556 478
251 485
238 658
333 636
647 238
668 475
289 182
282 238
724 691
306 199
253 167
604 830
301 395
280 647
288 408
180 218
89 260
406 74
119 767
496 850
266 365
493 516
188 353
48 193
210 835
549 740
172 925
297 473
498 825
443 604
678 639
271 829
157 869
616 810
252 415
568 839
673 134
398 626
200 197
497 367
162 469
679 552
813 450
485 817
822 469
786 516
587 526
407 611
318 347
673 234
280 337
578 542
620 824
194 66
758 744
737 693
643 717
